#######################################
### Exact MIP solver for the HHCRSP ###
#######################################
-- Instance file: new-instances/HHCRSP_200_40_65_0.8_C_RC.txt
-- Max threads: 4
-- Time limit: 999999 seconds
-- Use initial solution: No
Trivial flow violations prevented generating 365665 variables.
Version identifier: 20.1.0.0 | 2020-11-10 | 9bedb6d68
CPXPARAM_Threads                                 4
CPXPARAM_TimeLimit                               999999
Parallel mode: deterministic, using up to 4 threads for concurrent optimization:
 * Starting dual Simplex on 1 thread...
 * Starting Barrier on 3 threads...
Tried aggregator 1 time.
LP Presolve eliminated 22752 rows and 5766 columns.
Reduced LP has 434406 rows, 412541 columns, and 7878430 nonzeros.
Presolve time = 15.20 sec. (1796.85 ticks)
Symmetry aggregator did 677466 additional substitutions.

Iteration log . . .
Iteration:     1   Dual objective     =             0.000000

Dual crossover.
  Dual:  Fixing 859 variables.
      858 DMoves:  Infeasibility  8.42420600e-13  Objective  2.85333333e+02
        0 DMoves:  Infeasibility  3.89727162e-13  Objective  2.85333333e+02
  Dual:  Pushed 37, exchanged 822.
  Primal:  Fixing 688 variables.
      687 PMoves:  Infeasibility  1.33920652e-15  Objective  2.85333333e+02
        0 PMoves:  Infeasibility  2.11636264e-15  Objective  2.85333333e+02
  Primal:  Pushed 584, exchanged 104.

Dual simplex solved model.


Solution status from MIP model:
-- Processing time: 25.878 sec.
-- Memory used: 477.863 MB
-- Best bound: inf
-- Obj value: 285.333
-- Gap: inf%
-- Total distance: 856
-- Total tardiness: 0
-- Largest tardiness: 0
